teste
Itens: 7 Capacidade 7

Item 1 peso 3
Conflitos
2 

Item 2 peso 2
Conflitos
1 5 

Item 3 peso 3
Conflitos
4 5 

Item 4 peso 2
Conflitos
3 6 

Item 5 peso 3
Conflitos
2 3 7 

Item 6 peso 4
Conflitos
4 7 

Item 7 peso 3
Conflitos
5 6 


